Minimize
M1 + M2
Subject To
x0,12 + x0,13 + x0,14 + x0,15 + x0,16 + x0,17 + x0,18 = 1
x1,12 + x1,13 + x1,14 + x1,15 + x1,16 + x1,17 + x1,18 = 1
x2,11 + x2,12 + x2,13 + x2,14 + x2,15 + x2,16 + x2,17 = 1
x3,12 + x3,13 + x3,14 + x3,15 + x3,16 + x3,17 + x3,18 = 1
x4,12 + x4,13 + x4,14 + x4,15 + x4,16 + x4,17 + x4,18 = 1
x5,11 + x5,12 + x5,13 + x5,14 + x5,15 + x5,16 + x5,17 = 1
x6,11 + x6,12 + x6,13 + x6,14 + x6,15 + x6,16 + x6,17 + x6,18 = 1
x7,11 + x7,12 + x7,13 + x7,14 + x7,15 + x7,16 + x7,17 + x7,18 = 1
x8,10 + x8,11 + x8,12 + x8,13 + x8,14 + x8,15 + x8,16 + x8,17 = 1
x9,10 + x9,11 + x9,12 + x9,13 + x9,14 + x9,15 + x9,16 + x9,17 + x9,18 = 1
x10,10 + x10,11 + x10,12 + x10,13 + x10,14 + x10,15 + x10,16 + x10,17 + x10,18 = 1
x11,9 + x11,10 + x11,11 + x11,12 + x11,13 + x11,14 + x11,15 + x11,16 + x11,17 = 1
x12,9 + x12,10 + x12,11 + x12,12 + x12,13 + x12,14 + x12,15 + x12,16 + x12,17 + x12,18 = 1
x13,9 + x13,10 + x13,11 + x13,12 + x13,13 + x13,14 + x13,15 + x13,16 + x13,17 + x13,18 = 1
x14,8 + x14,9 + x14,10 + x14,11 + x14,12 + x14,13 + x14,14 + x14,15 + x14,16 + x14,17 = 1
x15,8 + x15,9 + x15,10 + x15,11 + x15,12 + x15,13 + x15,14 + x15,15 + x15,16 + x15,17 + x15,18 = 1
x16,8 + x16,9 + x16,10 + x16,11 + x16,12 + x16,13 + x16,14 + x16,15 + x16,16 + x16,17 + x16,18 = 1
x17,7 + x17,8 + x17,9 + x17,10 + x17,11 + x17,12 + x17,13 + x17,14 + x17,15 + x17,16 + x17,17 = 1
x18,7 + x18,8 + x18,9 + x18,10 + x18,11 + x18,12 + x18,13 + x18,14 + x18,15 + x18,16 + x18,17 + x18,18 = 1
x19,7 + x19,8 + x19,9 + x19,10 + x19,11 + x19,12 + x19,13 + x19,14 + x19,15 + x19,16 + x19,17 + x19,18 = 1
x20,6 + x20,7 + x20,8 + x20,9 + x20,10 + x20,11 + x20,12 + x20,13 + x20,14 + x20,15 + x20,16 + x20,17 = 1
x21,6 + x21,7 + x21,8 + x21,9 + x21,10 + x21,11 + x21,12 + x21,13 + x21,14 + x21,15 + x21,16 + x21,17 + x21,18 = 1
x22,6 + x22,7 + x22,8 + x22,9 + x22,10 + x22,11 + x22,12 + x22,13 + x22,14 + x22,15 + x22,16 + x22,17 + x22,18 = 1
x23,5 + x23,6 + x23,7 + x23,8 + x23,9 + x23,10 + x23,11 + x23,12 + x23,13 + x23,14 + x23,15 + x23,16 + x23,17 = 1
x24,9 + x24,10 + x24,11 + x24,12 + x24,13 + x24,14 + x24,15 = 1
x25,9 + x25,10 + x25,11 + x25,12 + x25,13 + x25,14 + x25,15 = 1
x26,8 + x26,9 + x26,10 + x26,11 + x26,12 + x26,13 + x26,14 + x26,15 = 1
x27,7 + x27,8 + x27,9 + x27,10 + x27,11 + x27,12 + x27,13 + x27,14 + x27,15 = 1
x28,6 + x28,7 + x28,8 + x28,9 + x28,10 + x28,11 + x28,12 + x28,13 + x28,14 + x28,15 = 1
x29,5 + x29,6 + x29,7 + x29,8 + x29,9 + x29,10 + x29,11 + x29,12 + x29,13 + x29,14 + x29,15 = 1
x30,4 + x30,5 + x30,6 + x30,7 + x30,8 + x30,9 + x30,10 + x30,11 + x30,12 + x30,13 + x30,14 + x30,15 = 1
x31,3 + x31,4 + x31,5 + x31,6 + x31,7 + x31,8 + x31,9 + x31,10 + x31,11 + x31,12 + x31,13 + x31,14 + x31,15 = 1
x32,8 + x32,9 + x32,10 + x32,11 + x32,12 + x32,13 + x32,14 = 1
x33,7 + x33,8 + x33,9 + x33,10 + x33,11 + x33,12 + x33,13 = 1
x34,6 + x34,7 + x34,8 + x34,9 + x34,10 + x34,11 + x34,12 = 1
x35,5 + x35,6 + x35,7 + x35,8 + x35,9 + x35,10 + x35,11 = 1
x36,4 + x36,5 + x36,6 + x36,7 + x36,8 + x36,9 + x36,10 = 1
x37,3 + x37,4 + x37,5 + x37,6 + x37,7 + x37,8 + x37,9 = 1
x38,2 + x38,3 + x38,4 + x38,5 + x38,6 + x38,7 + x38,8 = 1
x39,1 + x39,2 + x39,3 + x39,4 + x39,5 + x39,6 + x39,7 = 1
x38,2 + x39,2 - M2 <= 0
x37,3 + x38,3 + x39,3 - M2 <= 0
x36,4 + x37,4 + x38,4 + x39,4 - M2 <= 0
x30,4 + x30,3 + x31,4 + x31,3 - M1 <= 0
x23,5 + x35,5 + x36,5 + x37,5 + x38,5 + x39,5 - M2 <= 0
x29,5 + x29,4 + x30,5 + x30,4 + x31,5 + x31,4 - M1 <= 0
x20,6 + x21,6 + x22,6 + x23,6 + x34,6 + x35,6 + x36,6 + x37,6 + x38,6 + x39,6 - M2 <= 0
x28,6 + x28,5 + x29,6 + x29,5 + x30,6 + x30,5 + x31,6 + x31,5 - M1 <= 0
x17,7 + x18,7 + x19,7 + x20,7 + x21,7 + x22,7 + x23,7 + x33,7 + x34,7 + x35,7 + x36,7 + x37,7 + x38,7 + x39,7 - M2 <= 0
x27,7 + x27,6 + x28,7 + x28,6 + x29,7 + x29,6 + x30,7 + x30,6 + x31,7 + x31,6 - M1 <= 0
x14,8 + x15,8 + x16,8 + x17,8 + x18,8 + x19,8 + x20,8 + x21,8 + x22,8 + x23,8 + x32,8 + x33,8 + x34,8 + x35,8 + x36,8 + x37,8 + x38,8 - M2 <= 0
x26,8 + x26,7 + x27,8 + x27,7 + x28,8 + x28,7 + x29,8 + x29,7 + x30,8 + x30,7 + x31,8 + x31,7 - M1 <= 0
x11,9 + x12,9 + x13,9 + x14,9 + x15,9 + x16,9 + x17,9 + x18,9 + x19,9 + x20,9 + x21,9 + x22,9 + x23,9 + x32,9 + x33,9 + x34,9 + x35,9 + x36,9 + x37,9 - M2 <= 0
x24,9 + x24,8 + x25,9 + x25,8 + x26,9 + x26,8 + x27,9 + x27,8 + x28,9 + x28,8 + x29,9 + x29,8 + x30,9 + x30,8 + x31,9 + x31,8 - M1 <= 0
x8,10 + x9,10 + x10,10 + x11,10 + x12,10 + x13,10 + x14,10 + x15,10 + x16,10 + x17,10 + x18,10 + x19,10 + x20,10 + x21,10 + x22,10 + x23,10 + x32,10 + x33,10 + x34,10 + x35,10 + x36,10 - M2 <= 0
x24,10 + x24,9 + x25,10 + x25,9 + x26,10 + x26,9 + x27,10 + x27,9 + x28,10 + x28,9 + x29,10 + x29,9 + x30,10 + x30,9 + x31,10 + x31,9 - M1 <= 0
x2,11 + x5,11 + x6,11 + x7,11 + x8,11 + x9,11 + x10,11 + x11,11 + x12,11 + x13,11 + x14,11 + x15,11 + x16,11 + x17,11 + x18,11 + x19,11 + x20,11 + x21,11 + x22,11 + x23,11 + x32,11 + x33,11 + x34,11 + x35,11 - M2 <= 0
x24,11 + x24,10 + x25,11 + x25,10 + x26,11 + x26,10 + x27,11 + x27,10 + x28,11 + x28,10 + x29,11 + x29,10 + x30,11 + x30,10 + x31,11 + x31,10 - M1 <= 0
x0,12 + x1,12 + x2,12 + x3,12 + x4,12 + x5,12 + x6,12 + x7,12 + x8,12 + x9,12 + x10,12 + x11,12 + x12,12 + x13,12 + x14,12 + x15,12 + x16,12 + x17,12 + x18,12 + x19,12 + x20,12 + x21,12 + x22,12 + x23,12 + x32,12 + x33,12 + x34,12 - M2 <= 0
x24,12 + x24,11 + x25,12 + x25,11 + x26,12 + x26,11 + x27,12 + x27,11 + x28,12 + x28,11 + x29,12 + x29,11 + x30,12 + x30,11 + x31,12 + x31,11 - M1 <= 0
x0,13 + x1,13 + x2,13 + x3,13 + x4,13 + x5,13 + x6,13 + x7,13 + x8,13 + x9,13 + x10,13 + x11,13 + x12,13 + x13,13 + x14,13 + x15,13 + x16,13 + x17,13 + x18,13 + x19,13 + x20,13 + x21,13 + x22,13 + x23,13 + x32,13 + x33,13 - M2 <= 0
x24,13 + x24,12 + x25,13 + x25,12 + x26,13 + x26,12 + x27,13 + x27,12 + x28,13 + x28,12 + x29,13 + x29,12 + x30,13 + x30,12 + x31,13 + x31,12 - M1 <= 0
x0,14 + x1,14 + x2,14 + x3,14 + x4,14 + x5,14 + x6,14 + x7,14 + x8,14 + x9,14 + x10,14 + x11,14 + x12,14 + x13,14 + x14,14 + x15,14 + x16,14 + x17,14 + x18,14 + x19,14 + x20,14 + x21,14 + x22,14 + x23,14 + x32,14 - M2 <= 0
x24,14 + x24,13 + x25,14 + x25,13 + x26,14 + x26,13 + x27,14 + x27,13 + x28,14 + x28,13 + x29,14 + x29,13 + x30,14 + x30,13 + x31,14 + x31,13 - M1 <= 0
x0,15 + x1,15 + x2,15 + x3,15 + x4,15 + x5,15 + x6,15 + x7,15 + x8,15 + x9,15 + x10,15 + x11,15 + x12,15 + x13,15 + x14,15 + x15,15 + x16,15 + x17,15 + x18,15 + x19,15 + x20,15 + x21,15 + x22,15 + x23,15 - M2 <= 0
x24,15 + x24,14 + x25,15 + x25,14 + x26,15 + x26,14 + x27,15 + x27,14 + x28,15 + x28,14 + x29,15 + x29,14 + x30,15 + x30,14 + x31,15 + x31,14 - M1 <= 0
x0,16 + x1,16 + x2,16 + x3,16 + x4,16 + x5,16 + x6,16 + x7,16 + x8,16 + x9,16 + x10,16 + x11,16 + x12,16 + x13,16 + x14,16 + x15,16 + x16,16 + x17,16 + x18,16 + x19,16 + x20,16 + x21,16 + x22,16 + x23,16 - M2 <= 0
x24,16 + x24,15 + x25,16 + x25,15 + x26,16 + x26,15 + x27,16 + x27,15 + x28,16 + x28,15 + x29,16 + x29,15 + x30,16 + x30,15 + x31,16 + x31,15 - M1 <= 0
x0,17 + x1,17 + x2,17 + x3,17 + x4,17 + x5,17 + x6,17 + x7,17 + x8,17 + x9,17 + x10,17 + x11,17 + x12,17 + x13,17 + x14,17 + x15,17 + x16,17 + x17,17 + x18,17 + x19,17 + x20,17 + x21,17 + x22,17 + x23,17 - M2 <= 0
x0,18 + x1,18 + x3,18 + x4,18 + x6,18 + x7,18 + x9,18 + x10,18 + x12,18 + x13,18 + x15,18 + x16,18 + x18,18 + x19,18 + x21,18 + x22,18 - M2 <= 0
11 x2,11 + 12 x2,12 + 13 x2,13 + 14 x2,14 + 15 x2,15 + 16 x2,16 + 17 x2,17 - 12 x0,12 - 13 x0,13 - 14 x0,14 - 15 x0,15 - 16 x0,16 - 17 x0,17 - 18 x0,18 <= -1
11 x2,11 + 12 x2,12 + 13 x2,13 + 14 x2,14 + 15 x2,15 + 16 x2,16 + 17 x2,17 - 12 x1,12 - 13 x1,13 - 14 x1,14 - 15 x1,15 - 16 x1,16 - 17 x1,17 - 18 x1,18 <= -1
11 x5,11 + 12 x5,12 + 13 x5,13 + 14 x5,14 + 15 x5,15 + 16 x5,16 + 17 x5,17 - 12 x3,12 - 13 x3,13 - 14 x3,14 - 15 x3,15 - 16 x3,16 - 17 x3,17 - 18 x3,18 <= -1
11 x5,11 + 12 x5,12 + 13 x5,13 + 14 x5,14 + 15 x5,15 + 16 x5,16 + 17 x5,17 - 12 x4,12 - 13 x4,13 - 14 x4,14 - 15 x4,15 - 16 x4,16 - 17 x4,17 - 18 x4,18 <= -1
10 x8,10 + 11 x8,11 + 12 x8,12 + 13 x8,13 + 14 x8,14 + 15 x8,15 + 16 x8,16 + 17 x8,17 - 11 x6,11 - 12 x6,12 - 13 x6,13 - 14 x6,14 - 15 x6,15 - 16 x6,16 - 17 x6,17 - 18 x6,18 <= -1
10 x8,10 + 11 x8,11 + 12 x8,12 + 13 x8,13 + 14 x8,14 + 15 x8,15 + 16 x8,16 + 17 x8,17 - 11 x7,11 - 12 x7,12 - 13 x7,13 - 14 x7,14 - 15 x7,15 - 16 x7,16 - 17 x7,17 - 18 x7,18 <= -1
9 x11,9 + 10 x11,10 + 11 x11,11 + 12 x11,12 + 13 x11,13 + 14 x11,14 + 15 x11,15 + 16 x11,16 + 17 x11,17 - 10 x9,10 - 11 x9,11 - 12 x9,12 - 13 x9,13 - 14 x9,14 - 15 x9,15 - 16 x9,16 - 17 x9,17 - 18 x9,18 <= -1
9 x11,9 + 10 x11,10 + 11 x11,11 + 12 x11,12 + 13 x11,13 + 14 x11,14 + 15 x11,15 + 16 x11,16 + 17 x11,17 - 10 x10,10 - 11 x10,11 - 12 x10,12 - 13 x10,13 - 14 x10,14 - 15 x10,15 - 16 x10,16 - 17 x10,17 - 18 x10,18 <= -1
8 x14,8 + 9 x14,9 + 10 x14,10 + 11 x14,11 + 12 x14,12 + 13 x14,13 + 14 x14,14 + 15 x14,15 + 16 x14,16 + 17 x14,17 - 9 x12,9 - 10 x12,10 - 11 x12,11 - 12 x12,12 - 13 x12,13 - 14 x12,14 - 15 x12,15 - 16 x12,16 - 17 x12,17 - 18 x12,18 <= -1
8 x14,8 + 9 x14,9 + 10 x14,10 + 11 x14,11 + 12 x14,12 + 13 x14,13 + 14 x14,14 + 15 x14,15 + 16 x14,16 + 17 x14,17 - 9 x13,9 - 10 x13,10 - 11 x13,11 - 12 x13,12 - 13 x13,13 - 14 x13,14 - 15 x13,15 - 16 x13,16 - 17 x13,17 - 18 x13,18 <= -1
7 x17,7 + 8 x17,8 + 9 x17,9 + 10 x17,10 + 11 x17,11 + 12 x17,12 + 13 x17,13 + 14 x17,14 + 15 x17,15 + 16 x17,16 + 17 x17,17 - 8 x15,8 - 9 x15,9 - 10 x15,10 - 11 x15,11 - 12 x15,12 - 13 x15,13 - 14 x15,14 - 15 x15,15 - 16 x15,16 - 17 x15,17 - 18 x15,18 <= -1
7 x17,7 + 8 x17,8 + 9 x17,9 + 10 x17,10 + 11 x17,11 + 12 x17,12 + 13 x17,13 + 14 x17,14 + 15 x17,15 + 16 x17,16 + 17 x17,17 - 8 x16,8 - 9 x16,9 - 10 x16,10 - 11 x16,11 - 12 x16,12 - 13 x16,13 - 14 x16,14 - 15 x16,15 - 16 x16,16 - 17 x16,17 - 18 x16,18 <= -1
6 x20,6 + 7 x20,7 + 8 x20,8 + 9 x20,9 + 10 x20,10 + 11 x20,11 + 12 x20,12 + 13 x20,13 + 14 x20,14 + 15 x20,15 + 16 x20,16 + 17 x20,17 - 7 x18,7 - 8 x18,8 - 9 x18,9 - 10 x18,10 - 11 x18,11 - 12 x18,12 - 13 x18,13 - 14 x18,14 - 15 x18,15 - 16 x18,16 - 17 x18,17 - 18 x18,18 <= -1
6 x20,6 + 7 x20,7 + 8 x20,8 + 9 x20,9 + 10 x20,10 + 11 x20,11 + 12 x20,12 + 13 x20,13 + 14 x20,14 + 15 x20,15 + 16 x20,16 + 17 x20,17 - 7 x19,7 - 8 x19,8 - 9 x19,9 - 10 x19,10 - 11 x19,11 - 12 x19,12 - 13 x19,13 - 14 x19,14 - 15 x19,15 - 16 x19,16 - 17 x19,17 - 18 x19,18 <= -1
5 x23,5 + 6 x23,6 + 7 x23,7 + 8 x23,8 + 9 x23,9 + 10 x23,10 + 11 x23,11 + 12 x23,12 + 13 x23,13 + 14 x23,14 + 15 x23,15 + 16 x23,16 + 17 x23,17 - 6 x21,6 - 7 x21,7 - 8 x21,8 - 9 x21,9 - 10 x21,10 - 11 x21,11 - 12 x21,12 - 13 x21,13 - 14 x21,14 - 15 x21,15 - 16 x21,16 - 17 x21,17 - 18 x21,18 <= -1
5 x23,5 + 6 x23,6 + 7 x23,7 + 8 x23,8 + 9 x23,9 + 10 x23,10 + 11 x23,11 + 12 x23,12 + 13 x23,13 + 14 x23,14 + 15 x23,15 + 16 x23,16 + 17 x23,17 - 6 x22,6 - 7 x22,7 - 8 x22,8 - 9 x22,9 - 10 x22,10 - 11 x22,11 - 12 x22,12 - 13 x22,13 - 14 x22,14 - 15 x22,15 - 16 x22,16 - 17 x22,17 - 18 x22,18 <= -1
9 x24,9 + 10 x24,10 + 11 x24,11 + 12 x24,12 + 13 x24,13 + 14 x24,14 + 15 x24,15 - 11 x2,11 - 12 x2,12 - 13 x2,13 - 14 x2,14 - 15 x2,15 - 16 x2,16 - 17 x2,17 <= -2
9 x25,9 + 10 x25,10 + 11 x25,11 + 12 x25,12 + 13 x25,13 + 14 x25,14 + 15 x25,15 - 11 x5,11 - 12 x5,12 - 13 x5,13 - 14 x5,14 - 15 x5,15 - 16 x5,16 - 17 x5,17 <= -2
8 x26,8 + 9 x26,9 + 10 x26,10 + 11 x26,11 + 12 x26,12 + 13 x26,13 + 14 x26,14 + 15 x26,15 - 10 x8,10 - 11 x8,11 - 12 x8,12 - 13 x8,13 - 14 x8,14 - 15 x8,15 - 16 x8,16 - 17 x8,17 <= -2
7 x27,7 + 8 x27,8 + 9 x27,9 + 10 x27,10 + 11 x27,11 + 12 x27,12 + 13 x27,13 + 14 x27,14 + 15 x27,15 - 9 x11,9 - 10 x11,10 - 11 x11,11 - 12 x11,12 - 13 x11,13 - 14 x11,14 - 15 x11,15 - 16 x11,16 - 17 x11,17 <= -2
6 x28,6 + 7 x28,7 + 8 x28,8 + 9 x28,9 + 10 x28,10 + 11 x28,11 + 12 x28,12 + 13 x28,13 + 14 x28,14 + 15 x28,15 - 8 x14,8 - 9 x14,9 - 10 x14,10 - 11 x14,11 - 12 x14,12 - 13 x14,13 - 14 x14,14 - 15 x14,15 - 16 x14,16 - 17 x14,17 <= -2
5 x29,5 + 6 x29,6 + 7 x29,7 + 8 x29,8 + 9 x29,9 + 10 x29,10 + 11 x29,11 + 12 x29,12 + 13 x29,13 + 14 x29,14 + 15 x29,15 - 7 x17,7 - 8 x17,8 - 9 x17,9 - 10 x17,10 - 11 x17,11 - 12 x17,12 - 13 x17,13 - 14 x17,14 - 15 x17,15 - 16 x17,16 - 17 x17,17 <= -2
4 x30,4 + 5 x30,5 + 6 x30,6 + 7 x30,7 + 8 x30,8 + 9 x30,9 + 10 x30,10 + 11 x30,11 + 12 x30,12 + 13 x30,13 + 14 x30,14 + 15 x30,15 - 6 x20,6 - 7 x20,7 - 8 x20,8 - 9 x20,9 - 10 x20,10 - 11 x20,11 - 12 x20,12 - 13 x20,13 - 14 x20,14 - 15 x20,15 - 16 x20,16 - 17 x20,17 <= -2
3 x31,3 + 4 x31,4 + 5 x31,5 + 6 x31,6 + 7 x31,7 + 8 x31,8 + 9 x31,9 + 10 x31,10 + 11 x31,11 + 12 x31,12 + 13 x31,13 + 14 x31,14 + 15 x31,15 - 5 x23,5 - 6 x23,6 - 7 x23,7 - 8 x23,8 - 9 x23,9 - 10 x23,10 - 11 x23,11 - 12 x23,12 - 13 x23,13 - 14 x23,14 - 15 x23,15 - 16 x23,16 - 17 x23,17 <= -2
8 x32,8 + 9 x32,9 + 10 x32,10 + 11 x32,11 + 12 x32,12 + 13 x32,13 + 14 x32,14 - 9 x24,9 - 10 x24,10 - 11 x24,11 - 12 x24,12 - 13 x24,13 - 14 x24,14 - 15 x24,15 <= -1
8 x32,8 + 9 x32,9 + 10 x32,10 + 11 x32,11 + 12 x32,12 + 13 x32,13 + 14 x32,14 - 9 x25,9 - 10 x25,10 - 11 x25,11 - 12 x25,12 - 13 x25,13 - 14 x25,14 - 15 x25,15 <= -1
7 x33,7 + 8 x33,8 + 9 x33,9 + 10 x33,10 + 11 x33,11 + 12 x33,12 + 13 x33,13 - 8 x26,8 - 9 x26,9 - 10 x26,10 - 11 x26,11 - 12 x26,12 - 13 x26,13 - 14 x26,14 - 15 x26,15 <= -1
7 x33,7 + 8 x33,8 + 9 x33,9 + 10 x33,10 + 11 x33,11 + 12 x33,12 + 13 x33,13 - 8 x32,8 - 9 x32,9 - 10 x32,10 - 11 x32,11 - 12 x32,12 - 13 x32,13 - 14 x32,14 <= -1
6 x34,6 + 7 x34,7 + 8 x34,8 + 9 x34,9 + 10 x34,10 + 11 x34,11 + 12 x34,12 - 7 x27,7 - 8 x27,8 - 9 x27,9 - 10 x27,10 - 11 x27,11 - 12 x27,12 - 13 x27,13 - 14 x27,14 - 15 x27,15 <= -1
6 x34,6 + 7 x34,7 + 8 x34,8 + 9 x34,9 + 10 x34,10 + 11 x34,11 + 12 x34,12 - 7 x33,7 - 8 x33,8 - 9 x33,9 - 10 x33,10 - 11 x33,11 - 12 x33,12 - 13 x33,13 <= -1
5 x35,5 + 6 x35,6 + 7 x35,7 + 8 x35,8 + 9 x35,9 + 10 x35,10 + 11 x35,11 - 6 x28,6 - 7 x28,7 - 8 x28,8 - 9 x28,9 - 10 x28,10 - 11 x28,11 - 12 x28,12 - 13 x28,13 - 14 x28,14 - 15 x28,15 <= -1
5 x35,5 + 6 x35,6 + 7 x35,7 + 8 x35,8 + 9 x35,9 + 10 x35,10 + 11 x35,11 - 6 x34,6 - 7 x34,7 - 8 x34,8 - 9 x34,9 - 10 x34,10 - 11 x34,11 - 12 x34,12 <= -1
4 x36,4 + 5 x36,5 + 6 x36,6 + 7 x36,7 + 8 x36,8 + 9 x36,9 + 10 x36,10 - 5 x29,5 - 6 x29,6 - 7 x29,7 - 8 x29,8 - 9 x29,9 - 10 x29,10 - 11 x29,11 - 12 x29,12 - 13 x29,13 - 14 x29,14 - 15 x29,15 <= -1
4 x36,4 + 5 x36,5 + 6 x36,6 + 7 x36,7 + 8 x36,8 + 9 x36,9 + 10 x36,10 - 5 x35,5 - 6 x35,6 - 7 x35,7 - 8 x35,8 - 9 x35,9 - 10 x35,10 - 11 x35,11 <= -1
3 x37,3 + 4 x37,4 + 5 x37,5 + 6 x37,6 + 7 x37,7 + 8 x37,8 + 9 x37,9 - 4 x30,4 - 5 x30,5 - 6 x30,6 - 7 x30,7 - 8 x30,8 - 9 x30,9 - 10 x30,10 - 11 x30,11 - 12 x30,12 - 13 x30,13 - 14 x30,14 - 15 x30,15 <= -1
3 x37,3 + 4 x37,4 + 5 x37,5 + 6 x37,6 + 7 x37,7 + 8 x37,8 + 9 x37,9 - 4 x36,4 - 5 x36,5 - 6 x36,6 - 7 x36,7 - 8 x36,8 - 9 x36,9 - 10 x36,10 <= -1
2 x38,2 + 3 x38,3 + 4 x38,4 + 5 x38,5 + 6 x38,6 + 7 x38,7 + 8 x38,8 - 3 x31,3 - 4 x31,4 - 5 x31,5 - 6 x31,6 - 7 x31,7 - 8 x31,8 - 9 x31,9 - 10 x31,10 - 11 x31,11 - 12 x31,12 - 13 x31,13 - 14 x31,14 - 15 x31,15 <= -1
2 x38,2 + 3 x38,3 + 4 x38,4 + 5 x38,5 + 6 x38,6 + 7 x38,7 + 8 x38,8 - 3 x37,3 - 4 x37,4 - 5 x37,5 - 6 x37,6 - 7 x37,7 - 8 x37,8 - 9 x37,9 <= -1
1 x39,1 + 2 x39,2 + 3 x39,3 + 4 x39,4 + 5 x39,5 + 6 x39,6 + 7 x39,7 - 2 x38,2 - 3 x38,3 - 4 x38,4 - 5 x38,5 - 6 x38,6 - 7 x38,7 - 8 x38,8 <= -1
Bounds
0 <= x0,12 <= 1
0 <= x0,13 <= 1
0 <= x0,14 <= 1
0 <= x0,15 <= 1
0 <= x0,16 <= 1
0 <= x0,17 <= 1
0 <= x0,18 <= 1
0 <= x1,12 <= 1
0 <= x1,13 <= 1
0 <= x1,14 <= 1
0 <= x1,15 <= 1
0 <= x1,16 <= 1
0 <= x1,17 <= 1
0 <= x1,18 <= 1
0 <= x2,11 <= 1
0 <= x2,12 <= 1
0 <= x2,13 <= 1
0 <= x2,14 <= 1
0 <= x2,15 <= 1
0 <= x2,16 <= 1
0 <= x2,17 <= 1
0 <= x3,12 <= 1
0 <= x3,13 <= 1
0 <= x3,14 <= 1
0 <= x3,15 <= 1
0 <= x3,16 <= 1
0 <= x3,17 <= 1
0 <= x3,18 <= 1
0 <= x4,12 <= 1
0 <= x4,13 <= 1
0 <= x4,14 <= 1
0 <= x4,15 <= 1
0 <= x4,16 <= 1
0 <= x4,17 <= 1
0 <= x4,18 <= 1
0 <= x5,11 <= 1
0 <= x5,12 <= 1
0 <= x5,13 <= 1
0 <= x5,14 <= 1
0 <= x5,15 <= 1
0 <= x5,16 <= 1
0 <= x5,17 <= 1
0 <= x6,11 <= 1
0 <= x6,12 <= 1
0 <= x6,13 <= 1
0 <= x6,14 <= 1
0 <= x6,15 <= 1
0 <= x6,16 <= 1
0 <= x6,17 <= 1
0 <= x6,18 <= 1
0 <= x7,11 <= 1
0 <= x7,12 <= 1
0 <= x7,13 <= 1
0 <= x7,14 <= 1
0 <= x7,15 <= 1
0 <= x7,16 <= 1
0 <= x7,17 <= 1
0 <= x7,18 <= 1
0 <= x8,10 <= 1
0 <= x8,11 <= 1
0 <= x8,12 <= 1
0 <= x8,13 <= 1
0 <= x8,14 <= 1
0 <= x8,15 <= 1
0 <= x8,16 <= 1
0 <= x8,17 <= 1
0 <= x9,10 <= 1
0 <= x9,11 <= 1
0 <= x9,12 <= 1
0 <= x9,13 <= 1
0 <= x9,14 <= 1
0 <= x9,15 <= 1
0 <= x9,16 <= 1
0 <= x9,17 <= 1
0 <= x9,18 <= 1
0 <= x10,10 <= 1
0 <= x10,11 <= 1
0 <= x10,12 <= 1
0 <= x10,13 <= 1
0 <= x10,14 <= 1
0 <= x10,15 <= 1
0 <= x10,16 <= 1
0 <= x10,17 <= 1
0 <= x10,18 <= 1
0 <= x11,9 <= 1
0 <= x11,10 <= 1
0 <= x11,11 <= 1
0 <= x11,12 <= 1
0 <= x11,13 <= 1
0 <= x11,14 <= 1
0 <= x11,15 <= 1
0 <= x11,16 <= 1
0 <= x11,17 <= 1
0 <= x12,9 <= 1
0 <= x12,10 <= 1
0 <= x12,11 <= 1
0 <= x12,12 <= 1
0 <= x12,13 <= 1
0 <= x12,14 <= 1
0 <= x12,15 <= 1
0 <= x12,16 <= 1
0 <= x12,17 <= 1
0 <= x12,18 <= 1
0 <= x13,9 <= 1
0 <= x13,10 <= 1
0 <= x13,11 <= 1
0 <= x13,12 <= 1
0 <= x13,13 <= 1
0 <= x13,14 <= 1
0 <= x13,15 <= 1
0 <= x13,16 <= 1
0 <= x13,17 <= 1
0 <= x13,18 <= 1
0 <= x14,8 <= 1
0 <= x14,9 <= 1
0 <= x14,10 <= 1
0 <= x14,11 <= 1
0 <= x14,12 <= 1
0 <= x14,13 <= 1
0 <= x14,14 <= 1
0 <= x14,15 <= 1
0 <= x14,16 <= 1
0 <= x14,17 <= 1
0 <= x15,8 <= 1
0 <= x15,9 <= 1
0 <= x15,10 <= 1
0 <= x15,11 <= 1
0 <= x15,12 <= 1
0 <= x15,13 <= 1
0 <= x15,14 <= 1
0 <= x15,15 <= 1
0 <= x15,16 <= 1
0 <= x15,17 <= 1
0 <= x15,18 <= 1
0 <= x16,8 <= 1
0 <= x16,9 <= 1
0 <= x16,10 <= 1
0 <= x16,11 <= 1
0 <= x16,12 <= 1
0 <= x16,13 <= 1
0 <= x16,14 <= 1
0 <= x16,15 <= 1
0 <= x16,16 <= 1
0 <= x16,17 <= 1
0 <= x16,18 <= 1
0 <= x17,7 <= 1
0 <= x17,8 <= 1
0 <= x17,9 <= 1
0 <= x17,10 <= 1
0 <= x17,11 <= 1
0 <= x17,12 <= 1
0 <= x17,13 <= 1
0 <= x17,14 <= 1
0 <= x17,15 <= 1
0 <= x17,16 <= 1
0 <= x17,17 <= 1
0 <= x18,7 <= 1
0 <= x18,8 <= 1
0 <= x18,9 <= 1
0 <= x18,10 <= 1
0 <= x18,11 <= 1
0 <= x18,12 <= 1
0 <= x18,13 <= 1
0 <= x18,14 <= 1
0 <= x18,15 <= 1
0 <= x18,16 <= 1
0 <= x18,17 <= 1
0 <= x18,18 <= 1
0 <= x19,7 <= 1
0 <= x19,8 <= 1
0 <= x19,9 <= 1
0 <= x19,10 <= 1
0 <= x19,11 <= 1
0 <= x19,12 <= 1
0 <= x19,13 <= 1
0 <= x19,14 <= 1
0 <= x19,15 <= 1
0 <= x19,16 <= 1
0 <= x19,17 <= 1
0 <= x19,18 <= 1
0 <= x20,6 <= 1
0 <= x20,7 <= 1
0 <= x20,8 <= 1
0 <= x20,9 <= 1
0 <= x20,10 <= 1
0 <= x20,11 <= 1
0 <= x20,12 <= 1
0 <= x20,13 <= 1
0 <= x20,14 <= 1
0 <= x20,15 <= 1
0 <= x20,16 <= 1
0 <= x20,17 <= 1
0 <= x21,6 <= 1
0 <= x21,7 <= 1
0 <= x21,8 <= 1
0 <= x21,9 <= 1
0 <= x21,10 <= 1
0 <= x21,11 <= 1
0 <= x21,12 <= 1
0 <= x21,13 <= 1
0 <= x21,14 <= 1
0 <= x21,15 <= 1
0 <= x21,16 <= 1
0 <= x21,17 <= 1
0 <= x21,18 <= 1
0 <= x22,6 <= 1
0 <= x22,7 <= 1
0 <= x22,8 <= 1
0 <= x22,9 <= 1
0 <= x22,10 <= 1
0 <= x22,11 <= 1
0 <= x22,12 <= 1
0 <= x22,13 <= 1
0 <= x22,14 <= 1
0 <= x22,15 <= 1
0 <= x22,16 <= 1
0 <= x22,17 <= 1
0 <= x22,18 <= 1
0 <= x23,5 <= 1
0 <= x23,6 <= 1
0 <= x23,7 <= 1
0 <= x23,8 <= 1
0 <= x23,9 <= 1
0 <= x23,10 <= 1
0 <= x23,11 <= 1
0 <= x23,12 <= 1
0 <= x23,13 <= 1
0 <= x23,14 <= 1
0 <= x23,15 <= 1
0 <= x23,16 <= 1
0 <= x23,17 <= 1
0 <= x24,9 <= 1
0 <= x24,10 <= 1
0 <= x24,11 <= 1
0 <= x24,12 <= 1
0 <= x24,13 <= 1
0 <= x24,14 <= 1
0 <= x24,15 <= 1
0 <= x25,9 <= 1
0 <= x25,10 <= 1
0 <= x25,11 <= 1
0 <= x25,12 <= 1
0 <= x25,13 <= 1
0 <= x25,14 <= 1
0 <= x25,15 <= 1
0 <= x26,8 <= 1
0 <= x26,9 <= 1
0 <= x26,10 <= 1
0 <= x26,11 <= 1
0 <= x26,12 <= 1
0 <= x26,13 <= 1
0 <= x26,14 <= 1
0 <= x26,15 <= 1
0 <= x27,7 <= 1
0 <= x27,8 <= 1
0 <= x27,9 <= 1
0 <= x27,10 <= 1
0 <= x27,11 <= 1
0 <= x27,12 <= 1
0 <= x27,13 <= 1
0 <= x27,14 <= 1
0 <= x27,15 <= 1
0 <= x28,6 <= 1
0 <= x28,7 <= 1
0 <= x28,8 <= 1
0 <= x28,9 <= 1
0 <= x28,10 <= 1
0 <= x28,11 <= 1
0 <= x28,12 <= 1
0 <= x28,13 <= 1
0 <= x28,14 <= 1
0 <= x28,15 <= 1
0 <= x29,5 <= 1
0 <= x29,6 <= 1
0 <= x29,7 <= 1
0 <= x29,8 <= 1
0 <= x29,9 <= 1
0 <= x29,10 <= 1
0 <= x29,11 <= 1
0 <= x29,12 <= 1
0 <= x29,13 <= 1
0 <= x29,14 <= 1
0 <= x29,15 <= 1
0 <= x30,4 <= 1
0 <= x30,5 <= 1
0 <= x30,6 <= 1
0 <= x30,7 <= 1
0 <= x30,8 <= 1
0 <= x30,9 <= 1
0 <= x30,10 <= 1
0 <= x30,11 <= 1
0 <= x30,12 <= 1
0 <= x30,13 <= 1
0 <= x30,14 <= 1
0 <= x30,15 <= 1
0 <= x31,3 <= 1
0 <= x31,4 <= 1
0 <= x31,5 <= 1
0 <= x31,6 <= 1
0 <= x31,7 <= 1
0 <= x31,8 <= 1
0 <= x31,9 <= 1
0 <= x31,10 <= 1
0 <= x31,11 <= 1
0 <= x31,12 <= 1
0 <= x31,13 <= 1
0 <= x31,14 <= 1
0 <= x31,15 <= 1
0 <= x32,8 <= 1
0 <= x32,9 <= 1
0 <= x32,10 <= 1
0 <= x32,11 <= 1
0 <= x32,12 <= 1
0 <= x32,13 <= 1
0 <= x32,14 <= 1
0 <= x33,7 <= 1
0 <= x33,8 <= 1
0 <= x33,9 <= 1
0 <= x33,10 <= 1
0 <= x33,11 <= 1
0 <= x33,12 <= 1
0 <= x33,13 <= 1
0 <= x34,6 <= 1
0 <= x34,7 <= 1
0 <= x34,8 <= 1
0 <= x34,9 <= 1
0 <= x34,10 <= 1
0 <= x34,11 <= 1
0 <= x34,12 <= 1
0 <= x35,5 <= 1
0 <= x35,6 <= 1
0 <= x35,7 <= 1
0 <= x35,8 <= 1
0 <= x35,9 <= 1
0 <= x35,10 <= 1
0 <= x35,11 <= 1
0 <= x36,4 <= 1
0 <= x36,5 <= 1
0 <= x36,6 <= 1
0 <= x36,7 <= 1
0 <= x36,8 <= 1
0 <= x36,9 <= 1
0 <= x36,10 <= 1
0 <= x37,3 <= 1
0 <= x37,4 <= 1
0 <= x37,5 <= 1
0 <= x37,6 <= 1
0 <= x37,7 <= 1
0 <= x37,8 <= 1
0 <= x37,9 <= 1
0 <= x38,2 <= 1
0 <= x38,3 <= 1
0 <= x38,4 <= 1
0 <= x38,5 <= 1
0 <= x38,6 <= 1
0 <= x38,7 <= 1
0 <= x38,8 <= 1
0 <= x39,1 <= 1
0 <= x39,2 <= 1
0 <= x39,3 <= 1
0 <= x39,4 <= 1
0 <= x39,5 <= 1
0 <= x39,6 <= 1
0 <= x39,7 <= 1
M1 >= 1
M2 >= 1
Generals
x0,12
x0,13
x0,14
x0,15
x0,16
x0,17
x0,18
x1,12
x1,13
x1,14
x1,15
x1,16
x1,17
x1,18
x2,11
x2,12
x2,13
x2,14
x2,15
x2,16
x2,17
x3,12
x3,13
x3,14
x3,15
x3,16
x3,17
x3,18
x4,12
x4,13
x4,14
x4,15
x4,16
x4,17
x4,18
x5,11
x5,12
x5,13
x5,14
x5,15
x5,16
x5,17
x6,11
x6,12
x6,13
x6,14
x6,15
x6,16
x6,17
x6,18
x7,11
x7,12
x7,13
x7,14
x7,15
x7,16
x7,17
x7,18
x8,10
x8,11
x8,12
x8,13
x8,14
x8,15
x8,16
x8,17
x9,10
x9,11
x9,12
x9,13
x9,14
x9,15
x9,16
x9,17
x9,18
x10,10
x10,11
x10,12
x10,13
x10,14
x10,15
x10,16
x10,17
x10,18
x11,9
x11,10
x11,11
x11,12
x11,13
x11,14
x11,15
x11,16
x11,17
x12,9
x12,10
x12,11
x12,12
x12,13
x12,14
x12,15
x12,16
x12,17
x12,18
x13,9
x13,10
x13,11
x13,12
x13,13
x13,14
x13,15
x13,16
x13,17
x13,18
x14,8
x14,9
x14,10
x14,11
x14,12
x14,13
x14,14
x14,15
x14,16
x14,17
x15,8
x15,9
x15,10
x15,11
x15,12
x15,13
x15,14
x15,15
x15,16
x15,17
x15,18
x16,8
x16,9
x16,10
x16,11
x16,12
x16,13
x16,14
x16,15
x16,16
x16,17
x16,18
x17,7
x17,8
x17,9
x17,10
x17,11
x17,12
x17,13
x17,14
x17,15
x17,16
x17,17
x18,7
x18,8
x18,9
x18,10
x18,11
x18,12
x18,13
x18,14
x18,15
x18,16
x18,17
x18,18
x19,7
x19,8
x19,9
x19,10
x19,11
x19,12
x19,13
x19,14
x19,15
x19,16
x19,17
x19,18
x20,6
x20,7
x20,8
x20,9
x20,10
x20,11
x20,12
x20,13
x20,14
x20,15
x20,16
x20,17
x21,6
x21,7
x21,8
x21,9
x21,10
x21,11
x21,12
x21,13
x21,14
x21,15
x21,16
x21,17
x21,18
x22,6
x22,7
x22,8
x22,9
x22,10
x22,11
x22,12
x22,13
x22,14
x22,15
x22,16
x22,17
x22,18
x23,5
x23,6
x23,7
x23,8
x23,9
x23,10
x23,11
x23,12
x23,13
x23,14
x23,15
x23,16
x23,17
x24,9
x24,10
x24,11
x24,12
x24,13
x24,14
x24,15
x25,9
x25,10
x25,11
x25,12
x25,13
x25,14
x25,15
x26,8
x26,9
x26,10
x26,11
x26,12
x26,13
x26,14
x26,15
x27,7
x27,8
x27,9
x27,10
x27,11
x27,12
x27,13
x27,14
x27,15
x28,6
x28,7
x28,8
x28,9
x28,10
x28,11
x28,12
x28,13
x28,14
x28,15
x29,5
x29,6
x29,7
x29,8
x29,9
x29,10
x29,11
x29,12
x29,13
x29,14
x29,15
x30,4
x30,5
x30,6
x30,7
x30,8
x30,9
x30,10
x30,11
x30,12
x30,13
x30,14
x30,15
x31,3
x31,4
x31,5
x31,6
x31,7
x31,8
x31,9
x31,10
x31,11
x31,12
x31,13
x31,14
x31,15
x32,8
x32,9
x32,10
x32,11
x32,12
x32,13
x32,14
x33,7
x33,8
x33,9
x33,10
x33,11
x33,12
x33,13
x34,6
x34,7
x34,8
x34,9
x34,10
x34,11
x34,12
x35,5
x35,6
x35,7
x35,8
x35,9
x35,10
x35,11
x36,4
x36,5
x36,6
x36,7
x36,8
x36,9
x36,10
x37,3
x37,4
x37,5
x37,6
x37,7
x37,8
x37,9
x38,2
x38,3
x38,4
x38,5
x38,6
x38,7
x38,8
x39,1
x39,2
x39,3
x39,4
x39,5
x39,6
x39,7
M1
M2
End
